423 5
10 10 10 10 10 

0 0 0 0 0 0 4 2 14 26 38 
0 0 0 0 0 0 5 3 4 6 7 8 
1 0 0 0 0 1 4 12 11 10 9 
5 0 0 0 0 1 2 11 5 
10 0 0 0 0 3 2 10 9 
6 0 0 0 0 1 2 11 10 
9 0 0 0 0 4 2 12 282 
1 0 0 0 0 3 1 9 
6 0 0 0 0 2 1 13 
10 0 0 0 0 3 1 13 
3 0 0 0 0 4 1 13 
1 0 0 0 0 3 1 13 
0 0 0 0 0 0 1 50 
0 0 0 0 0 0 5 15 17 18 19 24 
1 0 0 1 0 0 3 23 21 16 
10 0 0 3 0 0 1 22 
10 0 0 2 0 0 1 21 
4 0 0 1 0 0 1 20 
7 0 0 2 0 0 1 20 
4 0 0 4 0 0 1 25 
5 0 0 4 0 0 1 25 
5 0 0 3 0 0 1 25 
3 0 0 2 0 0 2 25 403 
2 0 0 3 0 0 1 25 
0 0 0 0 0 0 1 50 
0 0 0 0 0 0 5 27 28 29 30 32 
7 0 0 0 1 0 4 36 35 34 33 
8 0 0 0 3 0 3 35 34 33 
5 0 0 0 4 0 2 35 33 
8 0 0 0 3 0 1 31 
8 0 0 0 4 0 1 33 
8 0 0 0 2 0 1 34 
7 0 0 0 1 0 1 37 
5 0 0 0 2 0 1 37 
7 0 0 0 1 0 2 37 302 
7 0 0 0 4 0 1 37 
0 0 0 0 0 0 1 50 
0 0 0 0 0 0 3 39 41 48 
7 0 1 0 0 0 4 47 46 43 40 
2 0 3 0 0 0 3 45 44 42 
10 0 3 0 0 0 2 43 42 
8 0 2 0 0 0 2 49 393 
5 0 3 0 0 0 1 49 
2 0 2 0 0 0 1 49 
1 0 2 0 0 0 1 49 
10 0 2 0 0 0 1 49 
2 0 3 0 0 0 1 49 
2 0 4 0 0 0 1 49 
0 0 0 0 0 0 1 50 
0 0 0 0 0 0 4 51 63 105 147 
0 0 0 0 0 0 5 52 53 55 60 61 
5 0 0 0 1 0 2 59 54 
6 0 0 0 4 0 2 58 54 
4 0 0 0 3 0 2 57 56 
4 0 0 0 2 0 1 56 
1 0 0 0 5 0 1 62 
3 0 0 0 1 0 1 62 
5 0 0 0 1 0 1 62 
3 0 0 0 1 0 1 62 
3 0 0 0 3 0 1 62 
9 0 0 0 4 0 1 62 
0 0 0 0 0 0 4 189 221 233 265 
0 0 0 0 0 0 5 64 68 69 70 73 
7 1 0 1 1 1 3 72 67 65 
9 2 0 1 1 3 2 74 66 
9 5 0 2 4 3 5 103 79 77 75 71 
5 3 0 2 3 3 9 103 92 88 84 83 80 79 78 77 
4 3 0 4 1 2 4 103 79 77 71 
3 2 0 3 1 4 6 91 90 84 83 76 72 
3 3 0 2 2 2 8 92 88 84 83 80 79 76 75 
2 3 0 3 1 1 10 92 91 90 88 86 85 84 83 81 76 
8 4 0 3 4 3 3 92 85 74 
6 2 0 2 2 2 5 91 86 85 83 77 
3 3 0 4 2 3 4 88 86 81 77 
5 2 0 3 3 3 4 91 90 85 82 
7 3 0 3 1 1 4 97 96 93 82 
4 3 0 2 4 2 4 97 96 93 87 
5 2 0 2 3 3 3 91 86 85 
9 2 0 3 2 3 2 90 82 
7 3 0 3 2 1 2 97 81 
9 3 0 2 2 2 3 102 96 87 
10 3 0 4 1 2 2 102 87 
1 2 0 3 5 3 2 96 87 
3 3 0 2 3 1 2 102 87 
8 2 0 5 1 3 4 102 100 96 94 
10 1 0 3 2 4 4 100 96 95 94 
1 4 0 1 1 5 1 89 
4 2 0 5 7 2 4 102 101 100 96 
3 1 0 2 3 3 3 100 95 94 
7 2 0 2 4 4 3 100 97 95 
6 1 0 1 1 3 2 101 93 
2 2 0 1 1 1 1 93 
6 1 0 1 2 2 4 102 100 99 98 
1 6 0 5 2 2 2 101 98 
7 2 0 1 6 3 2 99 98 
1 4 0 2 4 1 2 99 98 
8 4 0 1 2 1 1 101 
6 3 0 4 3 2 1 104 
9 1 0 3 2 3 1 104 
10 1 0 3 4 4 1 104 
9 1 0 3 1 2 1 104 
1 3 0 1 3 4 1 104 
4 2 0 2 3 3 1 104 
0 0 0 0 0 0 1 423 
0 0 0 0 0 0 5 106 109 111 112 116 
5 0 1 1 1 1 3 114 110 107 
5 0 2 2 2 4 2 120 108 
4 0 5 2 2 1 7 145 133 123 122 119 115 113 
8 0 3 3 2 1 6 145 133 123 122 119 113 
9 0 3 7 2 2 10 145 134 133 128 125 124 123 121 119 118 
9 0 4 1 3 3 8 134 132 131 130 126 125 117 114 
3 0 1 3 1 1 5 134 126 119 118 115 
7 0 1 3 2 1 8 134 132 131 130 128 126 125 117 
7 0 5 1 4 3 4 128 123 122 120 
7 0 1 3 2 4 4 132 131 130 124 
5 0 3 2 2 2 4 135 133 130 123 
10 0 1 4 2 2 3 139 138 124 
9 0 9 3 2 2 2 139 122 
6 0 1 3 4 1 3 144 131 127 
9 0 2 1 3 2 3 135 133 129 
6 0 3 2 3 5 3 137 132 130 
2 0 3 1 1 1 3 144 138 127 
8 0 5 1 4 2 3 144 139 127 
10 0 3 2 5 3 2 144 127 
3 0 2 2 2 2 2 144 127 
10 0 4 1 3 1 2 138 129 
8 0 4 2 2 4 1 129 
6 0 1 3 2 2 5 144 143 142 141 138 
7 0 1 1 3 4 3 143 137 136 
1 0 3 2 1 1 3 144 138 136 
8 0 1 3 2 5 3 141 139 137 
5 0 2 2 1 5 2 141 135 
9 0 3 1 2 4 2 138 136 
5 0 4 2 2 2 2 141 135 
1 0 2 5 4 4 3 144 143 140 
2 0 2 5 2 2 2 142 141 
9 0 4 1 5 5 1 140 
3 0 1 4 1 1 1 140 
2 0 1 3 2 2 1 142 
6 0 2 6 4 2 1 146 
9 0 1 2 2 3 1 146 
2 0 1 3 3 4 1 146 
9 0 1 2 4 1 1 146 
1 0 1 3 2 2 1 146 
9 0 3 2 4 3 1 146 
0 0 0 0 0 0 1 423 
0 0 0 0 0 0 5 148 152 153 154 158 
1 1 1 3 0 1 3 156 151 149 
6 3 6 1 0 2 2 162 150 
8 4 2 2 0 4 8 187 175 168 165 164 161 157 155 
7 2 3 1 0 4 10 187 176 175 170 167 166 165 163 161 160 
7 3 3 3 0 2 8 176 174 173 172 168 167 159 156 
4 3 5 4 0 1 6 187 175 165 164 161 155 
3 2 2 3 0 3 5 176 168 161 160 157 
7 2 2 2 0 5 7 176 174 173 172 170 167 159 
5 1 3 1 0 1 4 170 165 164 162 
10 1 2 4 0 2 4 174 173 172 166 
4 4 2 4 0 3 4 177 175 172 165 
10 3 2 1 0 3 3 181 180 166 
6 2 3 1 0 3 2 181 164 
3 3 2 2 0 1 3 186 173 169 
7 2 1 4 0 1 3 177 175 171 
7 1 1 2 0 2 3 179 174 172 
6 2 2 3 0 2 3 186 180 169 
10 3 2 2 0 3 3 186 181 169 
9 2 1 3 0 3 2 186 169 
1 5 2 1 0 1 2 186 169 
7 1 2 2 0 1 2 180 171 
9 2 1 1 0 3 1 171 
4 2 5 1 0 4 5 186 185 184 183 180 
5 1 3 4 0 4 3 185 179 178 
10 7 3 1 0 1 3 186 180 178 
1 3 2 2 0 1 3 183 181 179 
8 3 3 10 0 3 2 183 177 
2 3 1 2 0 5 2 180 178 
1 1 5 4 0 4 2 183 177 
7 2 2 2 0 3 3 186 185 182 
6 4 4 2 0 3 2 184 183 
10 2 2 4 0 4 1 182 
9 2 3 4 0 4 1 182 
1 3 2 1 0 1 1 184 
5 2 2 4 0 1 1 188 
2 2 4 2 0 2 1 188 
7 3 3 1 0 1 1 188 
5 1 3 1 0 3 1 188 
5 1 1 1 0 3 1 188 
10 6 2 4 0 2 1 188 
0 0 0 0 0 0 1 423 
0 0 0 0 0 0 6 190 191 192 193 194 199 
7 0 1 1 0 1 5 207 206 197 196 195 
7 0 2 2 0 2 5 206 204 203 197 195 
1 0 1 2 0 2 4 207 203 197 195 
8 0 4 2 0 2 4 208 207 196 195 
4 0 2 1 0 2 3 208 207 196 
3 0 2 2 0 2 3 202 201 200 
10 0 1 2 0 4 3 204 203 202 
8 0 1 4 0 1 1 198 
10 0 4 3 0 3 3 209 208 205 
6 0 2 2 0 3 2 209 202 
5 0 3 6 0 5 2 209 205 
10 0 1 1 0 4 2 209 205 
5 0 4 2 0 2 1 205 
10 0 3 1 0 1 1 205 
4 0 3 1 0 2 1 205 
4 0 4 4 0 2 5 219 218 215 211 210 
5 0 2 4 0 2 3 218 211 210 
9 0 3 3 0 1 3 215 213 209 
3 0 3 1 0 3 2 218 210 
2 0 2 2 0 7 4 219 218 217 216 
6 0 3 5 0 2 2 217 212 
1 0 1 4 0 2 2 217 214 
8 0 3 4 0 2 1 213 
10 0 3 1 0 2 1 216 
9 0 2 3 0 4 1 216 
3 0 2 4 0 1 1 217 
1 0 4 1 0 3 1 220 
1 0 3 2 0 2 1 220 
3 0 5 4 0 2 1 220 
7 0 1 1 0 4 1 220 
0 0 0 0 0 0 1 423 
0 0 0 0 0 0 5 222 223 224 227 231 
10 0 0 1 0 0 2 226 225 
9 0 0 4 0 0 2 228 225 
9 0 0 5 0 0 2 230 228 
3 0 0 3 0 0 1 229 
1 0 0 2 0 0 1 228 
9 0 0 3 0 0 1 228 
10 0 0 1 0 0 1 232 
6 0 0 3 0 0 1 232 
5 0 0 1 0 0 1 232 
9 0 0 2 0 0 1 232 
0 0 0 0 0 0 4 297 319 331 353 
0 0 0 0 0 0 6 234 235 236 237 238 248 
9 1 1 0 0 1 5 253 250 241 240 239 
5 2 1 0 0 2 5 250 247 246 241 239 
6 3 3 0 0 2 3 246 241 239 
5 3 1 0 0 1 3 251 240 239 
3 2 2 0 0 1 3 253 251 240 
7 3 3 0 0 1 3 245 243 242 
9 2 2 0 0 1 3 247 246 245 
1 4 3 0 0 4 2 251 244 
1 4 4 0 0 2 2 254 249 
7 4 2 0 0 1 2 254 249 
8 2 3 0 0 3 2 254 249 
1 2 3 0 0 2 1 249 
10 2 1 0 0 2 1 249 
3 5 2 0 0 2 1 249 
6 2 5 0 0 3 1 249 
7 2 2 0 0 2 5 263 262 259 255 252 
1 3 1 0 0 1 3 262 257 255 
8 3 3 0 0 3 2 262 252 
4 2 3 0 0 3 2 260 256 
8 1 1 0 0 5 1 254 
2 4 3 0 0 2 3 263 262 260 
2 2 3 0 0 4 2 260 258 
2 1 3 0 0 3 1 257 
1 3 2 0 0 4 1 261 
2 4 4 0 0 5 1 261 
1 3 5 0 0 4 1 260 
5 1 4 0 0 3 1 264 
5 2 2 0 0 3 1 264 
8 2 1 0 0 3 1 264 
9 1 2 0 0 2 1 264 
0 0 0 0 0 0 1 423 
0 0 0 0 0 0 6 266 267 268 269 272 295 
8 0 1 1 0 1 5 278 277 276 273 270 
6 0 2 1 0 2 4 294 276 273 270 
9 0 4 3 0 3 3 273 271 270 
8 0 2 6 0 3 3 279 276 270 
5 0 4 1 0 2 3 286 282 274 
1 0 3 4 0 4 4 291 278 277 275 
6 0 1 3 0 2 4 293 278 277 275 
9 0 4 2 0 2 2 286 275 
5 0 1 1 0 1 1 275 
4 0 1 2 0 2 5 292 290 289 285 281 
7 0 2 2 0 2 3 288 286 280 
7 0 5 2 0 1 4 290 289 288 281 
1 0 3 1 0 5 3 290 285 281 
4 0 1 2 0 2 3 289 288 284 
7 0 1 3 0 2 1 281 
2 0 4 4 0 3 1 283 
10 0 4 3 0 5 2 291 288 
10 0 2 2 0 4 1 284 
9 0 2 2 0 3 1 287 
9 0 2 2 0 3 1 288 
10 0 4 4 0 1 1 291 
6 0 2 2 0 3 1 296 
6 0 1 4 0 2 1 296 
10 0 2 4 0 2 1 296 
5 0 3 4 0 3 1 296 
9 0 4 2 0 1 1 296 
6 0 2 1 0 2 1 296 
5 0 2 2 0 3 1 296 
3 0 4 3 0 4 1 296 
3 0 2 2 0 2 1 296 
0 0 0 0 0 0 1 423 
0 0 0 0 0 0 5 298 299 301 302 303 
7 0 1 0 0 1 2 307 300 
4 0 3 0 0 4 2 306 304 
8 0 2 0 0 1 4 317 310 308 305 
6 0 4 0 0 2 4 317 309 308 307 
1 0 2 0 0 4 2 307 305 
8 0 3 0 0 4 5 317 315 313 310 309 
10 0 4 0 0 1 4 317 315 309 308 
6 0 1 0 0 4 4 315 313 312 309 
8 0 2 0 0 2 3 315 310 308 
3 0 3 0 0 1 3 315 313 310 
6 0 6 0 0 2 4 314 313 312 311 
4 0 3 0 0 1 3 316 314 311 
3 0 1 0 0 2 2 312 311 
5 0 2 0 0 2 1 318 
9 0 2 0 0 1 1 318 
6 0 2 0 0 4 1 318 
10 0 2 0 0 2 1 318 
1 0 2 0 0 2 1 318 
2 0 3 0 0 3 1 318 
9 0 2 0 0 7 1 318 
0 0 0 0 0 0 1 423 
0 0 0 0 0 0 5 320 321 322 323 329 
8 1 0 0 0 0 4 328 327 326 325 
7 3 0 0 0 0 3 327 326 324 
1 2 0 0 0 0 3 327 326 324 
1 1 0 0 0 0 2 326 325 
1 2 0 0 0 0 1 325 
6 2 0 0 0 0 1 330 
5 2 0 0 0 0 1 330 
9 4 0 0 0 0 1 330 
7 4 0 0 0 0 1 330 
1 4 0 0 0 0 1 330 
0 0 0 0 0 0 4 375 387 399 411 
0 0 0 0 0 0 15 332 334 335 340 341 342 343 344 345 346 347 348 349 350 351 
5 1 0 0 1 0 1 333 
9 3 0 0 3 0 1 336 
3 3 0 0 2 0 1 336 
10 4 0 0 2 0 2 339 338 
6 1 0 0 2 0 1 337 
4 1 0 0 2 0 1 338 
5 2 0 0 6 0 1 352 
9 3 0 0 3 0 1 352 
10 2 0 0 3 0 1 352 
9 2 0 0 3 0 1 352 
7 4 0 0 2 0 1 352 
3 3 0 0 2 0 1 352 
8 1 0 0 3 0 1 352 
2 6 0 0 3 0 1 352 
1 5 0 0 2 0 1 352 
7 4 0 0 2 0 1 352 
10 1 0 0 3 0 1 352 
6 1 0 0 1 0 1 352 
8 2 0 0 1 0 1 352 
4 1 0 0 4 0 1 352 
0 0 0 0 0 0 1 423 
0 0 0 0 0 0 9 354 355 357 358 360 363 364 372 373 
7 0 1 1 0 0 3 371 369 356 
9 0 1 3 0 0 4 370 369 368 362 
8 0 5 3 0 0 2 366 359 
10 0 3 3 0 0 3 367 366 365 
3 0 1 3 0 0 2 366 361 
5 0 5 1 0 0 1 361 
5 0 1 4 0 0 1 362 
3 0 3 2 0 0 1 365 
5 0 1 3 0 0 1 365 
1 0 3 2 0 0 1 368 
4 0 4 4 0 0 1 367 
5 0 3 2 0 0 1 374 
2 0 1 1 0 0 1 374 
6 0 3 4 0 0 1 374 
8 0 5 3 0 0 1 374 
1 0 1 1 0 0 1 374 
6 0 4 2 0 0 1 374 
4 0 1 1 0 0 1 374 
1 0 2 3 0 0 1 374 
5 0 2 4 0 0 1 374 
0 0 0 0 0 0 1 423 
0 0 0 0 0 0 4 376 377 378 385 
6 0 1 0 0 0 5 384 383 381 380 379 
1 0 3 0 0 0 4 383 381 380 379 
9 0 2 0 0 0 2 383 379 
7 0 2 0 0 0 1 382 
2 0 1 0 0 0 1 382 
9 0 4 0 0 0 1 382 
6 0 3 0 0 0 1 386 
1 0 2 0 0 0 1 386 
2 0 6 0 0 0 1 386 
6 0 1 0 0 0 1 386 
0 0 0 0 0 0 1 423 
0 0 0 0 0 0 5 388 389 391 396 397 
1 0 0 1 0 0 4 395 394 393 392 
9 0 0 4 0 0 1 390 
4 0 0 4 0 0 3 394 393 392 
3 0 0 3 0 0 2 395 392 
9 0 0 1 0 0 1 398 
3 0 0 4 0 0 1 398 
2 0 0 1 0 0 1 398 
8 0 0 3 0 0 1 398 
2 0 0 2 0 0 1 398 
4 0 0 2 0 0 1 398 
0 0 0 0 0 0 1 423 
0 0 0 0 0 0 2 400 401 
9 0 1 0 0 0 6 407 406 405 404 403 402 
6 0 1 0 0 0 6 407 406 405 404 403 402 
8 0 3 0 0 0 2 409 408 
8 0 1 0 0 0 2 409 408 
10 0 2 0 0 0 2 409 408 
7 0 6 0 0 0 2 409 408 
5 0 3 0 0 0 2 409 408 
3 0 1 0 0 0 1 408 
6 0 4 0 0 0 1 410 
9 0 3 0 0 0 1 410 
0 0 0 0 0 0 1 423 
0 0 0 0 0 0 2 412 413 
10 0 0 1 0 0 5 421 420 416 415 414 
1 0 0 3 0 0 4 420 417 415 414 
10 0 0 2 0 0 2 419 418 
7 0 0 5 0 0 1 418 
8 0 0 3 0 0 1 419 
6 0 0 3 0 0 1 418 
5 0 0 2 0 0 1 422 
5 0 0 1 0 0 1 422 
5 0 0 2 0 0 1 422 
1 0 0 3 0 0 1 422 
0 0 0 0 0 0 1 423 
0 0 0 0 0 0 0 
